p tw 51 54
1 2
2 13
3 4
4 5
5 6
6 7
6 19
7 8
8 9
9 10
10 11
11 12
11 45
12 14
13 24
14 15
15 16
16 17
17 18
18 45
19 20
20 21
21 22
22 23
23 25
23 33
24 35
25 26
26 27
27 28
28 29
29 30
30 31
31 32
32 33
33 34
34 36
34 45
35 46
36 37
37 38
38 39
39 40
40 41
41 42
42 43
43 44
44 45
45 47
46 48
48 49
49 50
50 51
51 3
